c Generated map
c Size: 8 * 8, weights in range: 1 to 10, walls: True, with ratio 0.05
c dim 4 of 8
c
p sp 64 101
c graph contains 64 nodes and 101 arcs
c
a 1 9 7
a 9 1 7
a 1 2 10
a 2 1 10
a 2 10 1
a 10 2 1
a 2 3 7
a 3 2 7
a 3 11 4
a 11 3 4
a 3 4 6
a 4 3 6
a 4 12 9
a 12 4 9
a 4 5 8
a 5 4 8
a 5 13 10
a 13 5 10
a 5 6 5
a 6 5 5
a 6 14 3
a 14 6 3
a 6 7 6
a 7 6 6
a 7 15 5
a 15 7 5
a 7 8 4
a 8 7 4
a 8 16 2
a 16 8 2
a 9 17 7
a 17 9 7
a 9 10 5
a 10 9 5
a 10 18 4
a 18 10 4
a 10 11 9
a 11 10 9
a 11 19 3
a 19 11 3
a 11 12 1
a 12 11 1
a 12 13 4
a 13 12 4
a 13 21 7
a 21 13 7
a 13 14 5
a 14 13 5
a 14 22 1
a 22 14 1
a 14 15 9
a 15 14 9
a 15 23 6
a 23 15 6
a 15 16 7
a 16 15 7
a 16 24 5
a 24 16 5
a 17 25 4
a 25 17 4
a 17 18 9
a 18 17 9
a 18 26 3
a 26 18 3
a 18 19 9
a 19 18 9
a 19 27 4
a 27 19 4
a 21 29 10
a 29 21 10
a 21 22 8
a 22 21 8
a 22 30 10
a 30 22 10
a 22 23 6
a 23 22 6
a 23 31 7
a 31 23 7
a 23 24 2
a 24 23 2
a 24 32 2
a 32 24 2
a 25 33 1
a 33 25 1
a 25 26 4
a 26 25 4
a 26 34 6
a 34 26 6
a 26 27 4
a 27 26 4
a 27 35 3
a 35 27 3
a 27 28 9
a 28 27 9
a 28 36 9
a 36 28 9
a 28 29 7
a 29 28 7
a 29 37 3
a 37 29 3
a 29 30 9
a 30 29 9
a 30 38 9
a 38 30 9
a 30 31 8
a 31 30 8
a 31 39 6
a 39 31 6
a 31 32 9
a 32 31 9
a 32 40 10
a 40 32 10
a 33 41 1
a 41 33 1
a 33 34 3
a 34 33 3
a 34 42 1
a 42 34 1
a 34 35 4
a 35 34 4
a 35 43 9
a 43 35 9
a 35 36 9
a 36 35 9
a 36 44 6
a 44 36 6
a 36 37 1
a 37 36 1
a 37 45 9
a 45 37 9
a 37 38 1
a 38 37 1
a 38 46 8
a 46 38 8
a 38 39 3
a 39 38 3
a 39 40 1
a 40 39 1
a 40 48 5
a 48 40 5
a 41 49 2
a 49 41 2
a 41 42 4
a 42 41 4
a 42 50 2
a 50 42 2
a 42 43 9
a 43 42 9
a 43 51 4
a 51 43 4
a 43 44 5
a 44 43 5
a 44 52 1
a 52 44 1
a 44 45 2
a 45 44 2
a 45 53 5
a 53 45 5
a 45 46 5
a 46 45 5
a 46 54 3
a 54 46 3
a 48 56 4
a 56 48 4
a 49 57 8
a 57 49 8
a 49 50 6
a 50 49 6
a 50 58 4
a 58 50 4
a 50 51 7
a 51 50 7
a 51 59 6
a 59 51 6
a 51 52 1
a 52 51 1
a 52 60 7
a 60 52 7
a 52 53 4
a 53 52 4
a 53 54 5
a 54 53 5
a 54 62 7
a 62 54 7
a 54 55 10
a 55 54 10
a 55 63 10
a 63 55 10
a 55 56 9
a 56 55 9
a 56 64 4
a 64 56 4
a 57 58 4
a 58 57 4
a 58 59 5
a 59 58 5
a 59 60 5
a 60 59 5
a 62 63 2
a 63 62 2
a 63 64 9
a 64 63 9
